TIME 50
5254
13630
6918
13630
6178
13630
8040
13630
7200
13630
5281
13630
5568
13630
5149
13630
7456
13630
6097
13630
TIME 100
5789
13630
4967
13630
5036
13630
5110
13630
5327
13630
6861
13630
7332
13630
